20
44	397	251	87	87
38	310	347	65	64
15	240	192	98	91
4	214	351	19	37
26	149	218	21	16
42	267	248	4	5
12	335	343	64	3
17	393	291	95	0
49	197	338	28	87
1	315	169	88	74
35	326	165	72	47
49	348	276	61	46
13	75	260	52	61
20	299	196	16	61
44	320	241	80	48
10	19	274	33	30
34	272	309	65	26
18	69	204	17	88
9	493	258	71	57
26	497	296	51	36
